32	0

0	1	2
8	1	3
3	1	4
2	1	5
7	1	6
1	1	7
8	1	8
7	2	9	10
1	1	11
1	1	11
1	1	12
5	1	13
1	1	14
6	1	15
8	1	16
10	1	17
6	1	18
1	1	19
10	1	20
10	1	21
3	1	22
1	1	23
3	1	24
3	1	25
6	1	26
1	1	27
3	1	28
5	2	29	30
1	1	31
7	1	31
1	1	32
0	0
